rc2_10_8

VEHICLE
NUMBER   CAPACITY
250     1000

CUSTOMER
CUST NO. XCOORD.  YCOORD.  DEMAND  READY TIME DUE DATE  SERVICE TIME

0   250    250     0     0    7284     0
227 451 305 13 635 1033 10
600 497 266 25 2715 3385 10
250 434 359 13 5407 5850 10
520 499 316 18 2270 2824 10
577 471 368 19 1547 1997 10
843 487 320 21 3361 3620 10
775 475 267 7 2936 3420 10
482 491 369 28 2640 3316 10
133 460 328 13 780 1092 10
912 489 338 17 5375 5923 10
491 453 318 30 1230 1879 10
718 478 300 12 3551 3686 10
918 489 274 31 1891 2499 10
928 490 286 29 1948 2350 10
649 468 352 9 2986 3279 10
184 492 335 10 3138 3607 10
